10
0 99 106 167 136 194 284 92 69 160 
99 0 205 266 235 293 383 191 168 259 
106 205 0 61 30 271 361 169 37 91
167 266 61 0 31 320 373 218 98 30
136 235 30 31 0 301 391 199 67 61
194 293 271 320 301 0 90 102 234 290
284 383 361 373 391 90 0 192 324 290
92 191 169 218 199 102 192 0 132 188
69 168 37 98 67 234 324 132 0 128
160 259 91 30 61 290 343 188 128 0